4109
3121
909
870
2619
2139
1214
1200
1723
726
2520
3811
2108
2675
1399
4021
3411
2934
3772
2602
3777
361
2789
575
1835
2510
4034
3188
2186
3510
3332
3842
3040
3542
1135
1487
1636
179
3475
2373
2252
3813
2227
1746
3982
2217
819
821
3619
179
2384
2548
1233
3002
3136
3841
228
2852
3249
3527
2191
2363
327
2509
1521
3779
3381
4106
1781
3980
1967
3102
1299
2075
2143
1293
1104
3007
1886
1238
1686
3614
1934
3438
3702
2161
2468
2372
3410
2825
3755
3633
1690
1710
532
3187
1204
2443
770
1888
